p cnf 1076 2718
-1 -2 0
1 2 0
-3 -4 0
3 4 0
-5 -6 0
5 6 0
-7 -8 0
7 8 0
-9 -10 0
9 10 0
-11 -12 0
11 12 0
-13 -14 0
13 14 0
-15 -16 0
15 16 0
-17 -18 0
17 18 0
-19 -20 0
19 20 0
-21 -22 0
21 22 0
-23 -24 0
23 24 0
8 -25 0
1 -25 0
-8 -1 25 0
1 -26 0
14 -26 0
-1 -14 26 0
-27 -28 0
27 28 0
1 -29 0
20 -29 0
-1 -20 29 0
10 -30 0
3 -30 0
-10 -3 30 0
-31 -32 0
31 32 0
16 -33 0
3 -33 0
-16 -3 33 0
22 -34 0
3 -34 0
-22 -3 34 0
-35 -36 0
35 36 0
5 -37 0
12 -37 0
-5 -12 37 0
5 -38 0
18 -38 0
-5 -18 38 0
-39 -40 0
39 40 0
5 -41 0
24 -41 0
-5 -24 41 0
8 -42 0
7 -42 0
-8 -7 42 0
-43 -44 0
43 44 0
7 -45 0
14 -45 0
-7 -14 45 0
7 -46 0
20 -46 0
-7 -20 46 0
-47 -48 0
47 48 0
4 -49 0
9 -49 0
-4 -9 49 0
10 -50 0
9 -50 0
-10 -9 50 0
-51 -52 0
51 52 0
16 -53 0
9 -53 0
-16 -9 53 0
22 -54 0
9 -54 0
-22 -9 54 0
-55 -56 0
55 56 0
11 -57 0
6 -57 0
-11 -6 57 0
11 -58 0
12 -58 0
-11 -12 58 0
-59 -60 0
59 60 0
11 -61 0
18 -61 0
-11 -18 61 0
11 -62 0
24 -62 0
-11 -24 62 0
-63 -64 0
63 64 0
13 -65 0
14 -65 0
-13 -14 65 0
13 -66 0
20 -66 0
-13 -20 66 0
-67 -68 0
67 68 0
15 -69 0
4 -69 0
-15 -4 69 0
15 -70 0
10 -70 0
-15 -10 70 0
40 -71 0
27 -71 0
-40 -27 71 0
15 -72 0
16 -72 0
-15 -16 72 0
22 -73 0
15 -73 0
-22 -15 73 0
31 -74 0
44 -74 0
-31 -44 74 0
17 -75 0
6 -75 0
-17 -6 75 0
17 -76 0
12 -76 0
-17 -12 76 0
77 -78 0
35 -78 0
-77 -35 78 0
17 -79 0
18 -79 0
-17 -18 79 0
17 -80 0
24 -80 0
-17 -24 80 0
28 -81 0
39 -81 0
-28 -39 81 0
19 -82 0
14 -82 0
-19 -14 82 0
19 -83 0
20 -83 0
-19 -20 83 0
43 -84 0
32 -84 0
-43 -32 84 0
16 -85 0
21 -85 0
-16 -21 85 0
4 -86 0
21 -86 0
-4 -21 86 0
-87 -71 0
87 71 0
10 -88 0
21 -88 0
-10 -21 88 0
22 -89 0
21 -89 0
-22 -21 89 0
-90 -74 0
90 74 0
18 -91 0
23 -91 0
-18 -23 91 0
6 -92 0
23 -92 0
-6 -23 92 0
-93 -81 0
93 81 0
12 -94 0
23 -94 0
-12 -23 94 0
23 -95 0
24 -95 0
-23 -24 95 0
-96 -84 0
96 84 0
-97 -30 0
97 30 0
-98 -33 0
98 33 0
87 -99 0
93 -99 0
-87 -93 99 0
-100 -34 0
100 34 0
-101 -37 0
101 37 0
90 -102 0
96 -102 0
-90 -96 102 0
-103 -38 0
103 38 0
-104 -41 0
104 41 0
102 -105 0
81 -105 0
-102 -81 105 0
-106 -49 0
106 49 0
-107 -50 0
107 50 0
102 -108 0
78 -108 0
-102 -78 108 0
-109 -53 0
109 53 0
-110 -54 0
110 54 0
-111 -105 0
111 105 0
-112 -57 0
112 57 0
-113 -58 0
113 58 0
108 -114 0
99 -114 0
-108 -99 114 0
-115 -61 0
115 61 0
-116 -62 0
116 62 0
111 -117 0
96 -117 0
-111 -96 117 0
-118 -69 0
118 69 0
-119 -70 0
119 70 0
-120 -114 0
120 114 0
-121 -72 0
121 72 0
-122 -73 0
122 73 0
120 -123 0
117 -123 0
-120 -117 123 0
-124 -75 0
124 75 0
-125 -76 0
125 76 0
-126 -123 0
126 123 0
-127 -79 0
127 79 0
-128 -80 0
128 80 0
77 -129 0
123 -129 0
-77 -123 129 0
-130 -85 0
130 85 0
-131 -86 0
131 86 0
28 -132 0
123 -132 0
-28 -123 132 0
-133 -88 0
133 88 0
-134 -89 0
134 89 0
32 -135 0
123 -135 0
-32 -123 135 0
-136 -91 0
136 91 0
-137 -92 0
137 92 0
36 -138 0
123 -138 0
-36 -123 138 0
-139 -94 0
139 94 0
-140 -95 0
140 95 0
40 -141 0
123 -141 0
-40 -123 141 0
97 -142 0
106 -142 0
-97 -106 142 0
101 -143 0
112 -143 0
-101 -112 143 0
44 -144 0
123 -144 0
-44 -123 144 0
98 -145 0
118 -145 0
-98 -118 145 0
109 -146 0
119 -146 0
-109 -119 146 0
36 -147 0
126 -147 0
-36 -126 147 0
103 -148 0
124 -148 0
-103 -124 148 0
115 -149 0
125 -149 0
-115 -125 149 0
40 -150 0
126 -150 0
-40 -126 150 0
130 -151 0
122 -151 0
-130 -122 151 0
131 -152 0
100 -152 0
-131 -100 152 0
126 -153 0
44 -153 0
-126 -44 153 0
133 -154 0
110 -154 0
-133 -110 154 0
136 -155 0
128 -155 0
-136 -128 155 0
77 -156 0
126 -156 0
-77 -126 156 0
137 -157 0
104 -157 0
-137 -104 157 0
116 -158 0
139 -158 0
-116 -139 158 0
28 -159 0
126 -159 0
-28 -126 159 0
143 -160 0
30 -160 0
-143 -30 160 0
143 -161 0
25 -161 0
-143 -25 161 0
126 -162 0
32 -162 0
-126 -32 162 0
113 -163 0
50 -163 0
-113 -50 163 0
113 -164 0
42 -164 0
-113 -42 164 0
-165 -129 0
165 129 0
33 -166 0
148 -166 0
-33 -148 166 0
26 -167 0
148 -167 0
-26 -148 167 0
-168 -132 0
168 132 0
53 -169 0
149 -169 0
-53 -149 169 0
45 -170 0
149 -170 0
-45 -149 170 0
-171 -135 0
171 135 0
127 -172 0
72 -172 0
-127 -72 172 0
127 -173 0
65 -173 0
-127 -65 173 0
-174 -138 0
174 138 0
85 -175 0
155 -175 0
-85 -155 175 0
82 -176 0
155 -176 0
-82 -155 176 0
-177 -141 0
177 141 0
34 -178 0
157 -178 0
-34 -157 178 0
29 -179 0
157 -179 0
-29 -157 179 0
-180 -144 0
180 144 0
54 -181 0
158 -181 0
-54 -158 181 0
46 -182 0
158 -182 0
-46 -158 182 0
-183 -147 0
183 147 0
73 -184 0
155 -184 0
-73 -155 184 0
66 -185 0
155 -185 0
-66 -155 185 0
-186 -150 0
186 150 0
140 -187 0
89 -187 0
-140 -89 187 0
140 -188 0
83 -188 0
-140 -83 188 0
-189 -153 0
189 153 0
-190 -160 0
190 160 0
161 -191 0
142 -191 0
-161 -142 191 0
-192 -156 0
192 156 0
-193 -163 0
193 163 0
164 -194 0
107 -194 0
-164 -107 194 0
-195 -159 0
195 159 0
-196 -166 0
196 166 0
145 -197 0
167 -197 0
-145 -167 197 0
-198 -162 0
198 162 0
-199 -169 0
199 169 0
146 -200 0
170 -200 0
-146 -170 200 0
165 -201 0
183 -201 0
-165 -183 201 0
-202 -172 0
202 172 0
121 -203 0
173 -203 0
-121 -173 203 0
168 -204 0
186 -204 0
-168 -186 204 0
-205 -175 0
205 175 0
176 -206 0
151 -206 0
-176 -151 206 0
189 -207 0
171 -207 0
-189 -171 207 0
-208 -178 0
208 178 0
152 -209 0
179 -209 0
-152 -179 209 0
174 -210 0
192 -210 0
-174 -192 210 0
-211 -181 0
211 181 0
154 -212 0
182 -212 0
-154 -182 212 0
-213 -184 0
213 184 0
177 -214 0
195 -214 0
-177 -195 214 0
151 -215 0
185 -215 0
-151 -185 215 0
-216 -187 0
216 187 0
180 -217 0
198 -217 0
-180 -198 217 0
188 -218 0
134 -218 0
-188 -134 218 0
101 -219 0
190 -219 0
-101 -190 219 0
-220 -201 0
220 201 0
-221 -191 0
221 191 0
193 -222 0
113 -222 0
-193 -113 222 0
-223 -204 0
223 204 0
-224 -194 0
224 194 0
103 -225 0
196 -225 0
-103 -196 225 0
-226 -207 0
226 207 0
-227 -197 0
227 197 0
115 -228 0
199 -228 0
-115 -199 228 0
-229 -210 0
229 210 0
-230 -200 0
230 200 0
127 -231 0
202 -231 0
-127 -202 231 0
-232 -214 0
232 214 0
-233 -203 0
233 203 0
136 -234 0
205 -234 0
-136 -205 234 0
52 -235 0
214 -235 0
-52 -214 235 0
-236 -206 0
236 206 0
104 -237 0
208 -237 0
-104 -208 237 0
-238 -217 0
238 217 0
-239 -209 0
239 209 0
211 -240 0
116 -240 0
-211 -116 240 0
56 -241 0
217 -241 0
-56 -217 241 0
-242 -212 0
242 212 0
213 -243 0
128 -243 0
-213 -128 243 0
229 -244 0
47 -244 0
-229 -47 244 0
-245 -215 0
245 215 0
216 -246 0
140 -246 0
-216 -140 246 0
51 -247 0
232 -247 0
-51 -232 247 0
-248 -218 0
248 218 0
219 -249 0
221 -249 0
-219 -221 249 0
-250 -235 0
250 235 0
222 -251 0
224 -251 0
-222 -224 251 0
227 -252 0
225 -252 0
-227 -225 252 0
55 -253 0
238 -253 0
-55 -238 253 0
228 -254 0
230 -254 0
-228 -230 254 0
233 -255 0
231 -255 0
-233 -231 255 0
-256 -241 0
256 241 0
236 -257 0
234 -257 0
-236 -234 257 0
237 -258 0
239 -258 0
-237 -239 258 0
-259 -247 0
259 247 0
240 -260 0
242 -260 0
-240 -242 260 0
243 -261 0
245 -261 0
-243 -245 261 0
-262 -253 0
262 253 0
248 -263 0
246 -263 0
-248 -246 263 0
-264 -249 0
264 249 0
250 -265 0
259 -265 0
-250 -259 265 0
-266 -251 0
266 251 0
-267 -252 0
267 252 0
256 -268 0
262 -268 0
-256 -262 268 0
-269 -254 0
269 254 0
-270 -255 0
270 255 0
268 -271 0
247 -271 0
-268 -247 271 0
-272 -257 0
272 257 0
-273 -258 0
273 258 0
268 -274 0
244 -274 0
-268 -244 274 0
-275 -260 0
275 260 0
-276 -261 0
276 261 0
-277 -271 0
277 271 0
-278 -263 0
278 263 0
264 -279 0
266 -279 0
-264 -266 279 0
274 -280 0
265 -280 0
-274 -265 280 0
-281 -279 0
281 279 0
281 -282 0
264 -282 0
-281 -264 282 0
262 -283 0
277 -283 0
-262 -277 283 0
-284 -282 0
284 282 0
281 -285 0
284 -285 0
-281 -284 285 0
-286 -280 0
286 280 0
285 -287 0
267 -287 0
-285 -267 287 0
-288 -285 0
288 285 0
286 -289 0
283 -289 0
-286 -283 289 0
-290 -287 0
290 287 0
290 -291 0
288 -291 0
-290 -288 291 0
-292 -289 0
292 289 0
291 -293 0
290 -293 0
-291 -290 293 0
293 -294 0
269 -294 0
-293 -269 294 0
229 -295 0
289 -295 0
-229 -289 295 0
-296 -294 0
296 294 0
291 -297 0
296 -297 0
-291 -296 297 0
232 -298 0
289 -298 0
-232 -289 298 0
296 -299 0
287 -299 0
-296 -287 299 0
-300 -297 0
300 297 0
238 -301 0
289 -301 0
-238 -289 301 0
-302 -299 0
302 299 0
296 -303 0
302 -303 0
-296 -302 303 0
289 -304 0
48 -304 0
-289 -48 304 0
-305 -303 0
305 303 0
305 -306 0
300 -306 0
-305 -300 306 0
52 -307 0
289 -307 0
-52 -289 307 0
306 -308 0
270 -308 0
-306 -270 308 0
-309 -308 0
309 308 0
56 -310 0
289 -310 0
-56 -289 310 0
309 -311 0
297 -311 0
-309 -297 311 0
305 -312 0
309 -312 0
-305 -309 312 0
292 -313 0
48 -313 0
-292 -48 313 0
-314 -312 0
314 312 0
309 -315 0
314 -315 0
-309 -314 315 0
52 -316 0
292 -316 0
-52 -292 316 0
-317 -315 0
317 315 0
317 -318 0
311 -318 0
-317 -311 318 0
292 -319 0
56 -319 0
-292 -56 319 0
318 -320 0
272 -320 0
-318 -272 320 0
-321 -320 0
321 320 0
229 -322 0
292 -322 0
-229 -292 322 0
311 -323 0
321 -323 0
-311 -321 323 0
317 -324 0
321 -324 0
-317 -321 324 0
292 -325 0
232 -325 0
-292 -232 325 0
-326 -323 0
326 323 0
-327 -324 0
327 324 0
292 -328 0
238 -328 0
-292 -238 328 0
327 -329 0
321 -329 0
-327 -321 329 0
326 -330 0
329 -330 0
-326 -329 330 0
-331 -295 0
331 295 0
-332 -329 0
332 329 0
330 -333 0
273 -333 0
-330 -273 333 0
-334 -298 0
334 298 0
-335 -333 0
335 333 0
323 -336 0
335 -336 0
-323 -335 336 0
-337 -301 0
337 301 0
332 -338 0
335 -338 0
-332 -335 338 0
-339 -336 0
339 336 0
-340 -304 0
340 304 0
-341 -338 0
341 338 0
339 -342 0
335 -342 0
-339 -335 342 0
-343 -307 0
343 307 0
335 -344 0
341 -344 0
-335 -341 344 0
-345 -342 0
345 342 0
-346 -310 0
346 310 0
-347 -344 0
347 344 0
345 -348 0
344 -348 0
-345 -344 348 0
-349 -313 0
349 313 0
348 -350 0
275 -350 0
-348 -275 350 0
-351 -350 0
351 350 0
-352 -316 0
352 316 0
351 -353 0
345 -353 0
-351 -345 353 0
347 -354 0
351 -354 0
-347 -351 354 0
-355 -319 0
355 319 0
-356 -353 0
356 353 0
-357 -354 0
357 354 0
-358 -322 0
358 322 0
351 -359 0
356 -359 0
-351 -356 359 0
351 -360 0
357 -360 0
-351 -357 360 0
-361 -325 0
361 325 0
-362 -359 0
362 359 0
-363 -360 0
363 360 0
-364 -328 0
364 328 0
363 -365 0
359 -365 0
-363 -359 365 0
276 -366 0
365 -366 0
-276 -365 366 0
331 -367 0
349 -367 0
-331 -349 367 0
-368 -366 0
368 366 0
362 -369 0
368 -369 0
-362 -368 369 0
334 -370 0
352 -370 0
-334 -352 370 0
363 -371 0
368 -371 0
-363 -368 371 0
-372 -369 0
372 369 0
355 -373 0
337 -373 0
-355 -337 373 0
-374 -371 0
374 371 0
372 -375 0
368 -375 0
-372 -368 375 0
340 -376 0
358 -376 0
-340 -358 376 0
374 -377 0
368 -377 0
-374 -368 377 0
-378 -375 0
378 375 0
361 -379 0
343 -379 0
-361 -343 379 0
-380 -377 0
380 377 0
378 -381 0
380 -381 0
-378 -380 381 0
364 -382 0
346 -382 0
-364 -346 382 0
381 -383 0
278 -383 0
-381 -278 383 0
-384 -383 0
384 383 0
367 -385 0
220 -385 0
-367 -220 385 0
384 -386 0
378 -386 0
-384 -378 386 0
384 -387 0
380 -387 0
-384 -380 387 0
-388 -367 0
388 367 0
-389 -386 0
389 386 0
-390 -387 0
390 387 0
223 -391 0
370 -391 0
-223 -370 391 0
384 -392 0
389 -392 0
-384 -389 392 0
384 -393 0
390 -393 0
-384 -390 393 0
-394 -370 0
394 370 0
-395 -392 0
395 392 0
-396 -393 0
396 393 0
373 -397 0
226 -397 0
-373 -226 397 0
395 -398 0
393 -398 0
-395 -393 398 0
396 -399 0
392 -399 0
-396 -392 399 0
-400 -373 0
400 373 0
395 -401 0
396 -401 0
-395 -396 401 0
8 -402 0
398 -402 0
-8 -398 402 0
-403 -376 0
403 376 0
-404 -398 0
404 398 0
398 -405 0
10 -405 0
-398 -10 405 0
-406 -379 0
406 379 0
398 -407 0
12 -407 0
-398 -12 407 0
2 -408 0
398 -408 0
-2 -398 408 0
379 -409 0
64 -409 0
-379 -64 409 0
398 -410 0
4 -410 0
-398 -4 410 0
398 -411 0
6 -411 0
-398 -6 411 0
-412 -382 0
412 382 0
399 -413 0
14 -413 0
-399 -14 413 0
-414 -399 0
414 399 0
382 -415 0
68 -415 0
-382 -68 415 0
16 -416 0
399 -416 0
-16 -399 416 0
18 -417 0
399 -417 0
-18 -399 417 0
394 -418 0
204 -418 0
-394 -204 418 0
-419 -401 0
419 401 0
401 -420 0
20 -420 0
-401 -20 420 0
-421 -391 0
421 391 0
22 -422 0
401 -422 0
-22 -401 422 0
401 -423 0
24 -423 0
-401 -24 423 0
-424 -397 0
424 397 0
-425 -402 0
425 402 0
2 -426 0
404 -426 0
-2 -404 426 0
4 -427 0
404 -427 0
-4 -404 427 0
207 -428 0
400 -428 0
-207 -400 428 0
404 -429 0
6 -429 0
-404 -6 429 0
8 -430 0
404 -430 0
-8 -404 430 0
403 -431 0
59 -431 0
-403 -59 431 0
10 -432 0
404 -432 0
-10 -404 432 0
404 -433 0
12 -433 0
-404 -12 433 0
406 -434 0
63 -434 0
-406 -63 434 0
-435 -405 0
435 405 0
-436 -407 0
436 407 0
-437 -409 0
437 409 0
-438 -408 0
438 408 0
-439 -410 0
439 410 0
412 -440 0
67 -440 0
-412 -67 440 0
-441 -411 0
441 411 0
-442 -413 0
442 413 0
-443 -415 0
443 415 0
414 -444 0
14 -444 0
-414 -14 444 0
16 -445 0
414 -445 0
-16 -414 445 0
-446 -418 0
446 418 0
18 -447 0
414 -447 0
-18 -414 447 0
-448 -416 0
448 416 0
-449 -428 0
449 428 0
-450 -417 0
450 417 0
20 -451 0
419 -451 0
-20 -419 451 0
-452 -434 0
452 434 0
22 -453 0
419 -453 0
-22 -419 453 0
419 -454 0
24 -454 0
-419 -24 454 0
-455 -440 0
455 440 0
-456 -420 0
456 420 0
-457 -422 0
457 422 0
446 -458 0
421 -458 0
-446 -421 458 0
-459 -423 0
459 423 0
-460 -426 0
460 426 0
449 -461 0
424 -461 0
-449 -424 461 0
-462 -427 0
462 427 0
-463 -429 0
463 429 0
437 -464 0
452 -464 0
-437 -452 464 0
-465 -430 0
465 430 0
-466 -432 0
466 432 0
455 -467 0
443 -467 0
-455 -443 467 0
-468 -433 0
468 433 0
-469 -444 0
469 444 0
461 -470 0
391 -470 0
-461 -391 470 0
-471 -445 0
471 445 0
-472 -447 0
472 447 0
385 -473 0
461 -473 0
-385 -461 473 0
-474 -451 0
474 451 0
-475 -453 0
475 453 0
467 -476 0
434 -476 0
-467 -434 476 0
-477 -454 0
477 454 0
425 -478 0
460 -478 0
-425 -460 478 0
467 -479 0
431 -479 0
-467 -431 479 0
462 -480 0
435 -480 0
-462 -435 480 0
463 -481 0
436 -481 0
-463 -436 481 0
-482 -470 0
482 470 0
438 -483 0
465 -483 0
-438 -465 483 0
466 -484 0
439 -484 0
-466 -439 484 0
473 -485 0
458 -485 0
-473 -458 485 0
468 -486 0
441 -486 0
-468 -441 486 0
-487 -478 0
487 478 0
-488 -476 0
488 476 0
-489 -480 0
489 480 0
-490 -481 0
490 481 0
479 -491 0
464 -491 0
-479 -464 491 0
-492 -483 0
492 483 0
-493 -484 0
493 484 0
482 -494 0
424 -494 0
-482 -424 494 0
-495 -486 0
495 486 0
487 -496 0
414 -496 0
-487 -414 496 0
-497 -485 0
497 485 0
487 -498 0
399 -498 0
-487 -399 498 0
414 -499 0
489 -499 0
-414 -489 499 0
455 -500 0
488 -500 0
-455 -488 500 0
399 -501 0
489 -501 0
-399 -489 501 0
414 -502 0
490 -502 0
-414 -490 502 0
-503 -491 0
503 491 0
399 -504 0
490 -504 0
-399 -490 504 0
399 -505 0
492 -505 0
-399 -492 505 0
494 -506 0
497 -506 0
-494 -497 506 0
414 -507 0
492 -507 0
-414 -492 507 0
399 -508 0
493 -508 0
-399 -493 508 0
503 -509 0
500 -509 0
-503 -500 509 0
414 -510 0
493 -510 0
-414 -493 510 0
399 -511 0
495 -511 0
-399 -495 511 0
-512 -506 0
512 506 0
414 -513 0
495 -513 0
-414 -495 513 0
-514 -496 0
514 496 0
220 -515 0
506 -515 0
-220 -506 515 0
-516 -498 0
516 498 0
-517 -499 0
517 499 0
223 -518 0
506 -518 0
-223 -506 518 0
-519 -501 0
519 501 0
-520 -502 0
520 502 0
506 -521 0
226 -521 0
-506 -226 521 0
-522 -504 0
522 504 0
-523 -505 0
523 505 0
388 -524 0
506 -524 0
-388 -506 524 0
-525 -507 0
525 507 0
-526 -508 0
526 508 0
394 -527 0
506 -527 0
-394 -506 527 0
-528 -510 0
528 510 0
-529 -511 0
529 511 0
506 -530 0
400 -530 0
-506 -400 530 0
-531 -513 0
531 513 0
514 -532 0
442 -532 0
-514 -442 532 0
-533 -509 0
533 509 0
516 -534 0
469 -534 0
-516 -469 534 0
448 -535 0
517 -535 0
-448 -517 535 0
403 -536 0
509 -536 0
-403 -509 536 0
471 -537 0
519 -537 0
-471 -519 537 0
450 -538 0
520 -538 0
-450 -520 538 0
406 -539 0
509 -539 0
-406 -509 539 0
522 -540 0
472 -540 0
-522 -472 540 0
523 -541 0
525 -541 0
-523 -525 541 0
509 -542 0
412 -542 0
-509 -412 542 0
528 -543 0
526 -543 0
-528 -526 543 0
531 -544 0
529 -544 0
-531 -529 544 0
509 -545 0
60 -545 0
-509 -60 545 0
-546 -532 0
546 532 0
-547 -534 0
547 534 0
64 -548 0
509 -548 0
-64 -509 548 0
-549 -535 0
549 535 0
-550 -537 0
550 537 0
509 -551 0
68 -551 0
-509 -68 551 0
-552 -538 0
552 538 0
-553 -540 0
553 540 0
512 -554 0
388 -554 0
-512 -388 554 0
-555 -541 0
555 541 0
-556 -543 0
556 543 0
394 -557 0
512 -557 0
-394 -512 557 0
-558 -544 0
558 544 0
546 -559 0
401 -559 0
-546 -401 559 0
512 -560 0
400 -560 0
-512 -400 560 0
546 -561 0
419 -561 0
-546 -419 561 0
547 -562 0
419 -562 0
-547 -419 562 0
512 -563 0
220 -563 0
-512 -220 563 0
401 -564 0
547 -564 0
-401 -547 564 0
401 -565 0
549 -565 0
-401 -549 565 0
512 -566 0
223 -566 0
-512 -223 566 0
549 -567 0
419 -567 0
-549 -419 567 0
550 -568 0
419 -568 0
-550 -419 568 0
512 -569 0
226 -569 0
-512 -226 569 0
401 -570 0
550 -570 0
-401 -550 570 0
552 -571 0
401 -571 0
-552 -401 571 0
-572 -515 0
572 515 0
552 -573 0
419 -573 0
-552 -419 573 0
553 -574 0
419 -574 0
-553 -419 574 0
-575 -518 0
575 518 0
553 -576 0
401 -576 0
-553 -401 576 0
555 -577 0
401 -577 0
-555 -401 577 0
-578 -521 0
578 521 0
555 -579 0
419 -579 0
-555 -419 579 0
556 -580 0
401 -580 0
-556 -401 580 0
-581 -524 0
581 524 0
556 -582 0
419 -582 0
-556 -419 582 0
558 -583 0
401 -583 0
-558 -401 583 0
-584 -527 0
584 527 0
558 -585 0
419 -585 0
-558 -419 585 0
-586 -559 0
586 559 0
-587 -530 0
587 530 0
-588 -561 0
588 561 0
-589 -562 0
589 562 0
533 -590 0
60 -590 0
-533 -60 590 0
-591 -564 0
591 564 0
-592 -565 0
592 565 0
64 -593 0
533 -593 0
-64 -533 593 0
-594 -567 0
594 567 0
-595 -568 0
595 568 0
533 -596 0
68 -596 0
-533 -68 596 0
-597 -570 0
597 570 0
-598 -571 0
598 571 0
403 -599 0
533 -599 0
-403 -533 599 0
-600 -573 0
600 573 0
-601 -574 0
601 574 0
406 -602 0
533 -602 0
-406 -533 602 0
-603 -576 0
603 576 0
-604 -577 0
604 577 0
412 -605 0
533 -605 0
-412 -533 605 0
-606 -579 0
606 579 0
-607 -580 0
607 580 0
-608 -536 0
608 536 0
-609 -582 0
609 582 0
-610 -583 0
610 583 0
-611 -539 0
611 539 0
-612 -585 0
612 585 0
586 -613 0
474 -613 0
-586 -474 613 0
-614 -542 0
614 542 0
456 -615 0
588 -615 0
-456 -588 615 0
475 -616 0
592 -616 0
-475 -592 616 0
-617 -545 0
617 545 0
457 -618 0
594 -618 0
-457 -594 618 0
477 -619 0
598 -619 0
-477 -598 619 0
-620 -548 0
620 548 0
459 -621 0
600 -621 0
-459 -600 621 0
589 -622 0
604 -622 0
-589 -604 622 0
-623 -551 0
623 551 0
591 -624 0
606 -624 0
-591 -606 624 0
595 -625 0
607 -625 0
-595 -607 625 0
-626 -554 0
626 554 0
609 -627 0
597 -627 0
-609 -597 627 0
610 -628 0
601 -628 0
-610 -601 628 0
-629 -557 0
629 557 0
603 -630 0
612 -630 0
-603 -612 630 0
-631 -613 0
631 613 0
-632 -560 0
632 560 0
-633 -615 0
633 615 0
-634 -616 0
634 616 0
-635 -563 0
635 563 0
-636 -618 0
636 618 0
-637 -619 0
637 619 0
-638 -621 0
638 621 0
-639 -566 0
639 566 0
-640 -622 0
640 622 0
-641 -624 0
641 624 0
-642 -569 0
642 569 0
-643 -625 0
643 625 0
-644 -627 0
644 627 0
-645 -590 0
645 590 0
-646 -628 0
646 628 0
-647 -630 0
647 630 0
-648 -593 0
648 593 0
625 -649 0
634 -649 0
-625 -634 649 0
627 -650 0
634 -650 0
-627 -634 650 0
-651 -596 0
651 596 0
628 -652 0
637 -652 0
-628 -637 652 0
630 -653 0
637 -653 0
-630 -637 653 0
-654 -599 0
654 599 0
613 -655 0
640 -655 0
-613 -640 655 0
622 -656 0
640 -656 0
-622 -640 656 0
-657 -602 0
657 602 0
613 -658 0
641 -658 0
-613 -641 658 0
641 -659 0
622 -659 0
-641 -622 659 0
-660 -605 0
660 605 0
641 -661 0
624 -661 0
-641 -624 661 0
616 -662 0
643 -662 0
-616 -643 662 0
626 -663 0
572 -663 0
-626 -572 663 0
643 -664 0
625 -664 0
-643 -625 664 0
627 -665 0
643 -665 0
-627 -643 665 0
575 -666 0
629 -666 0
-575 -629 666 0
616 -667 0
644 -667 0
-616 -644 667 0
625 -668 0
644 -668 0
-625 -644 668 0
632 -669 0
578 -669 0
-632 -578 669 0
627 -670 0
644 -670 0
-627 -644 670 0
619 -671 0
646 -671 0
-619 -646 671 0
635 -672 0
581 -672 0
-635 -581 672 0
628 -673 0
646 -673 0
-628 -646 673 0
630 -674 0
646 -674 0
-630 -646 674 0
639 -675 0
584 -675 0
-639 -584 675 0
619 -676 0
647 -676 0
-619 -647 676 0
628 -677 0
647 -677 0
-628 -647 677 0
642 -678 0
587 -678 0
-642 -587 678 0
630 -679 0
647 -679 0
-630 -647 679 0
-680 -649 0
680 649 0
608 -681 0
645 -681 0
-608 -645 681 0
-682 -650 0
682 650 0
-683 -652 0
683 652 0
611 -684 0
648 -684 0
-611 -648 684 0
-685 -653 0
685 653 0
-686 -662 0
686 662 0
614 -687 0
651 -687 0
-614 -651 687 0
-688 -664 0
688 664 0
-689 -665 0
689 665 0
617 -690 0
654 -690 0
-617 -654 690 0
-691 -667 0
691 667 0
-692 -668 0
692 668 0
657 -693 0
620 -693 0
-657 -620 693 0
-694 -670 0
694 670 0
-695 -671 0
695 671 0
623 -696 0
660 -696 0
-623 -660 696 0
-697 -673 0
697 673 0
-698 -674 0
698 674 0
-699 -663 0
699 663 0
-700 -676 0
700 676 0
-701 -677 0
701 677 0
-702 -666 0
702 666 0
-703 -679 0
703 679 0
686 -704 0
680 -704 0
-686 -680 704 0
-705 -669 0
705 669 0
682 -706 0
691 -706 0
-682 -691 706 0
689 -707 0
692 -707 0
-689 -692 707 0
-708 -672 0
708 672 0
683 -709 0
695 -709 0
-683 -695 709 0
700 -710 0
685 -710 0
-700 -685 710 0
-711 -675 0
711 675 0
698 -712 0
701 -712 0
-698 -701 712 0
709 -713 0
662 -713 0
-709 -662 713 0
-714 -678 0
714 678 0
709 -715 0
655 -715 0
-709 -655 715 0
664 -716 0
697 -716 0
-664 -697 716 0
-717 -681 0
717 681 0
697 -718 0
656 -718 0
-697 -656 718 0
667 -719 0
710 -719 0
-667 -710 719 0
-720 -684 0
720 684 0
658 -721 0
710 -721 0
-658 -710 721 0
668 -722 0
712 -722 0
-668 -712 722 0
-723 -687 0
723 687 0
659 -724 0
712 -724 0
-659 -712 724 0
703 -725 0
670 -725 0
-703 -670 725 0
-726 -690 0
726 690 0
703 -727 0
661 -727 0
-703 -661 727 0
-728 -713 0
728 713 0
-729 -693 0
729 693 0
704 -730 0
715 -730 0
-704 -715 730 0
-731 -716 0
731 716 0
-732 -696 0
732 696 0
718 -733 0
688 -733 0
-718 -688 733 0
-734 -719 0
734 719 0
681 -735 0
708 -735 0
-681 -708 735 0
706 -736 0
721 -736 0
-706 -721 736 0
-737 -722 0
737 722 0
711 -738 0
684 -738 0
-711 -684 738 0
707 -739 0
724 -739 0
-707 -724 739 0
-740 -725 0
740 725 0
687 -741 0
714 -741 0
-687 -714 741 0
694 -742 0
727 -742 0
-694 -727 742 0
728 -743 0
695 -743 0
-728 -695 743 0
720 -744 0
675 -744 0
-720 -675 744 0
-745 -730 0
745 730 0
731 -746 0
697 -746 0
-731 -697 746 0
678 -747 0
723 -747 0
-678 -723 747 0
-748 -733 0
748 733 0
700 -749 0
734 -749 0
-700 -734 749 0
-750 -738 0
750 738 0
-751 -736 0
751 736 0
737 -752 0
701 -752 0
-737 -701 752 0
-753 -741 0
753 741 0
-754 -739 0
754 739 0
740 -755 0
703 -755 0
-740 -703 755 0
-756 -744 0
756 744 0
-757 -742 0
757 742 0
743 -758 0
745 -758 0
-743 -745 758 0
-759 -747 0
759 747 0
746 -760 0
748 -760 0
-746 -748 760 0
749 -761 0
751 -761 0
-749 -751 761 0
750 -762 0
756 -762 0
-750 -756 762 0
754 -763 0
752 -763 0
-754 -752 763 0
757 -764 0
755 -764 0
-757 -755 764 0
753 -765 0
759 -765 0
-753 -759 765 0
-766 -758 0
766 758 0
-767 -760 0
767 760 0
765 -768 0
738 -768 0
-765 -738 768 0
-769 -761 0
769 761 0
-770 -763 0
770 763 0
765 -771 0
735 -771 0
-765 -735 771 0
-772 -764 0
772 764 0
767 -773 0
766 -773 0
-767 -766 773 0
-774 -768 0
774 768 0
-775 -773 0
775 773 0
766 -776 0
775 -776 0
-766 -775 776 0
762 -777 0
771 -777 0
-762 -771 777 0
-778 -776 0
778 776 0
775 -779 0
778 -779 0
-775 -778 779 0
774 -780 0
753 -780 0
-774 -753 780 0
779 -781 0
769 -781 0
-779 -769 781 0
-782 -779 0
782 779 0
-783 -777 0
783 777 0
-784 -781 0
784 781 0
784 -785 0
782 -785 0
-784 -782 785 0
783 -786 0
780 -786 0
-783 -780 786 0
784 -787 0
785 -787 0
-784 -785 787 0
787 -788 0
770 -788 0
-787 -770 788 0
-789 -786 0
789 786 0
-790 -788 0
790 788 0
790 -791 0
785 -791 0
-790 -785 791 0
786 -792 0
708 -792 0
-786 -708 792 0
790 -793 0
781 -793 0
-790 -781 793 0
-794 -791 0
794 791 0
786 -795 0
711 -795 0
-786 -711 795 0
-796 -793 0
796 793 0
796 -797 0
790 -797 0
-796 -790 797 0
786 -798 0
714 -798 0
-786 -714 798 0
-799 -797 0
799 797 0
799 -800 0
794 -800 0
-799 -794 800 0
786 -801 0
717 -801 0
-786 -717 801 0
772 -802 0
800 -802 0
-772 -800 802 0
-803 -802 0
803 802 0
786 -804 0
720 -804 0
-786 -720 804 0
803 -805 0
791 -805 0
-803 -791 805 0
803 -806 0
799 -806 0
-803 -799 806 0
786 -807 0
723 -807 0
-786 -723 807 0
-808 -805 0
808 805 0
-809 -806 0
809 806 0
789 -810 0
717 -810 0
-789 -717 810 0
803 -811 0
809 -811 0
-803 -809 811 0
805 -812 0
811 -812 0
-805 -811 812 0
789 -813 0
720 -813 0
-789 -720 813 0
-814 -811 0
814 811 0
640 -815 0
812 -815 0
-640 -812 815 0
789 -816 0
723 -816 0
-789 -723 816 0
-817 -812 0
817 812 0
643 -818 0
812 -818 0
-643 -812 818 0
789 -819 0
708 -819 0
-789 -708 819 0
646 -820 0
812 -820 0
-646 -812 820 0
631 -821 0
812 -821 0
-631 -812 821 0
789 -822 0
711 -822 0
-789 -711 822 0
634 -823 0
812 -823 0
-634 -812 823 0
812 -824 0
637 -824 0
-812 -637 824 0
789 -825 0
714 -825 0
-789 -714 825 0
808 -826 0
814 -826 0
-808 -814 826 0
-827 -815 0
827 815 0
-828 -792 0
828 792 0
817 -829 0
631 -829 0
-817 -631 829 0
817 -830 0
634 -830 0
-817 -634 830 0
-831 -795 0
831 795 0
817 -832 0
637 -832 0
-817 -637 832 0
817 -833 0
640 -833 0
-817 -640 833 0
-834 -798 0
834 798 0
817 -835 0
643 -835 0
-817 -643 835 0
817 -836 0
646 -836 0
-817 -646 836 0
-837 -801 0
837 801 0
-838 -818 0
838 818 0
-839 -820 0
839 820 0
-840 -804 0
840 804 0
-841 -821 0
841 821 0
-842 -823 0
842 823 0
-843 -807 0
843 807 0
-844 -824 0
844 824 0
-845 -826 0
845 826 0
-846 -810 0
846 810 0
641 -847 0
826 -847 0
-641 -826 847 0
826 -848 0
644 -848 0
-826 -644 848 0
-849 -813 0
849 813 0
647 -850 0
826 -850 0
-647 -826 850 0
-851 -829 0
851 829 0
-852 -830 0
852 830 0
-853 -816 0
853 816 0
-854 -832 0
854 832 0
-855 -833 0
855 833 0
-856 -819 0
856 819 0
-857 -835 0
857 835 0
-858 -836 0
858 836 0
-859 -822 0
859 822 0
641 -860 0
845 -860 0
-641 -845 860 0
845 -861 0
644 -861 0
-845 -644 861 0
-862 -825 0
862 825 0
647 -863 0
845 -863 0
-647 -845 863 0
-864 -847 0
864 847 0
846 -865 0
828 -865 0
-846 -828 865 0
-866 -848 0
866 848 0
-867 -850 0
867 850 0
849 -868 0
831 -868 0
-849 -831 868 0
827 -869 0
851 -869 0
-827 -851 869 0
838 -870 0
852 -870 0
-838 -852 870 0
834 -871 0
853 -871 0
-834 -853 871 0
839 -872 0
854 -872 0
-839 -854 872 0
841 -873 0
855 -873 0
-841 -855 873 0
837 -874 0
856 -874 0
-837 -856 874 0
842 -875 0
857 -875 0
-842 -857 875 0
844 -876 0
858 -876 0
-844 -858 876 0
859 -877 0
840 -877 0
-859 -840 877 0
-878 -860 0
878 860 0
-879 -861 0
879 861 0
843 -880 0
862 -880 0
-843 -862 880 0
-881 -863 0
881 863 0
-882 -869 0
882 869 0
865 -883 0
699 -883 0
-865 -699 883 0
-884 -870 0
884 870 0
-885 -872 0
885 872 0
-886 -865 0
886 865 0
-887 -873 0
887 873 0
-888 -875 0
888 875 0
702 -889 0
868 -889 0
-702 -868 889 0
-890 -876 0
890 876 0
826 -891 0
882 -891 0
-826 -882 891 0
-892 -868 0
892 868 0
882 -893 0
845 -893 0
-882 -845 893 0
826 -894 0
884 -894 0
-826 -884 894 0
705 -895 0
871 -895 0
-705 -871 895 0
845 -896 0
884 -896 0
-845 -884 896 0
885 -897 0
826 -897 0
-885 -826 897 0
-898 -871 0
898 871 0
885 -899 0
845 -899 0
-885 -845 899 0
887 -900 0
845 -900 0
-887 -845 900 0
-901 -874 0
901 874 0
826 -902 0
887 -902 0
-826 -887 902 0
888 -903 0
845 -903 0
-888 -845 903 0
-904 -877 0
904 877 0
888 -905 0
826 -905 0
-888 -826 905 0
890 -906 0
845 -906 0
-890 -845 906 0
-907 -880 0
907 880 0
826 -908 0
890 -908 0
-826 -890 908 0
-909 -891 0
909 891 0
666 -910 0
892 -910 0
-666 -892 910 0
-911 -893 0
911 893 0
-912 -894 0
912 894 0
-913 -889 0
913 889 0
-914 -896 0
914 896 0
-915 -897 0
915 897 0
-916 -895 0
916 895 0
-917 -899 0
917 899 0
-918 -900 0
918 900 0
669 -919 0
898 -919 0
-669 -898 919 0
-920 -902 0
920 902 0
-921 -903 0
921 903 0
-922 -910 0
922 910 0
-923 -905 0
923 905 0
-924 -906 0
924 906 0
-925 -919 0
925 919 0
-926 -908 0
926 908 0
909 -927 0
878 -927 0
-909 -878 927 0
913 -928 0
922 -928 0
-913 -922 928 0
864 -929 0
911 -929 0
-864 -911 929 0
879 -930 0
912 -930 0
-879 -912 930 0
916 -931 0
925 -931 0
-916 -925 931 0
914 -932 0
866 -932 0
-914 -866 932 0
915 -933 0
881 -933 0
-915 -881 933 0
931 -934 0
889 -934 0
-931 -889 934 0
867 -935 0
917 -935 0
-867 -917 935 0
918 -936 0
920 -936 0
-918 -920 936 0
931 -937 0
883 -937 0
-931 -883 937 0
923 -938 0
921 -938 0
-923 -921 938 0
924 -939 0
926 -939 0
-924 -926 939 0
-940 -934 0
940 934 0
-941 -927 0
941 927 0
-942 -929 0
942 929 0
937 -943 0
928 -943 0
-937 -928 943 0
-944 -930 0
944 930 0
-945 -932 0
945 932 0
916 -946 0
940 -946 0
-916 -940 946 0
-947 -933 0
947 933 0
-948 -935 0
948 935 0
-949 -943 0
949 943 0
-950 -936 0
950 936 0
-951 -938 0
951 938 0
949 -952 0
946 -952 0
-949 -946 952 0
-953 -939 0
953 939 0
938 -954 0
944 -954 0
-938 -944 954 0
-955 -952 0
955 952 0
947 -956 0
939 -956 0
-947 -939 956 0
950 -957 0
927 -957 0
-950 -927 957 0
952 -958 0
699 -958 0
-952 -699 958 0
950 -959 0
936 -959 0
-950 -936 959 0
951 -960 0
930 -960 0
-951 -930 960 0
702 -961 0
952 -961 0
-702 -952 961 0
938 -962 0
951 -962 0
-938 -951 962 0
953 -963 0
933 -963 0
-953 -933 963 0
705 -964 0
952 -964 0
-705 -952 964 0
953 -965 0
939 -965 0
-953 -939 965 0
-966 -954 0
966 954 0
952 -967 0
886 -967 0
-952 -886 967 0
-968 -956 0
968 956 0
-969 -960 0
969 960 0
952 -970 0
892 -970 0
-952 -892 970 0
-971 -962 0
971 962 0
-972 -963 0
972 963 0
952 -973 0
898 -973 0
-952 -898 973 0
-974 -965 0
974 965 0
966 -975 0
969 -975 0
-966 -969 975 0
955 -976 0
886 -976 0
-955 -886 976 0
968 -977 0
972 -977 0
-968 -972 977 0
977 -978 0
960 -978 0
-977 -960 978 0
955 -979 0
892 -979 0
-955 -892 979 0
977 -980 0
957 -980 0
-977 -957 980 0
974 -981 0
962 -981 0
-974 -962 981 0
955 -982 0
898 -982 0
-955 -898 982 0
959 -983 0
974 -983 0
-959 -974 983 0
-984 -978 0
984 978 0
699 -985 0
955 -985 0
-699 -955 985 0
975 -986 0
980 -986 0
-975 -980 986 0
-987 -981 0
987 981 0
702 -988 0
955 -988 0
-702 -955 988 0
983 -989 0
971 -989 0
-983 -971 989 0
984 -990 0
972 -990 0
-984 -972 990 0
705 -991 0
955 -991 0
-705 -955 991 0
-992 -986 0
992 986 0
987 -993 0
974 -993 0
-987 -974 993 0
-994 -958 0
994 958 0
-995 -989 0
995 989 0
990 -996 0
992 -996 0
-990 -992 996 0
-997 -961 0
997 961 0
995 -998 0
993 -998 0
-995 -993 998 0
-999 -996 0
999 996 0
-1000 -964 0
1000 964 0
-1001 -998 0
1001 998 0
999 -1002 0
1001 -1002 0
-999 -1001 1002 0
-1003 -967 0
1003 967 0
-1004 -1002 0
1004 1002 0
1004 -1005 0
999 -1005 0
-1004 -999 1005 0
-1006 -970 0
1006 970 0
-1007 -1005 0
1007 1005 0
1004 -1008 0
1007 -1008 0
-1004 -1007 1008 0
-1009 -973 0
1009 973 0
950 -1010 0
1008 -1010 0
-950 -1008 1010 0
-1011 -1008 0
1011 1008 0
-1012 -976 0
1012 976 0
951 -1013 0
1008 -1013 0
-951 -1008 1013 0
953 -1014 0
1008 -1014 0
-953 -1008 1014 0
-1015 -979 0
1015 979 0
941 -1016 0
1008 -1016 0
-941 -1008 1016 0
944 -1017 0
1008 -1017 0
-944 -1008 1017 0
-1018 -982 0
1018 982 0
947 -1019 0
1008 -1019 0
-947 -1008 1019 0
-1020 -1010 0
1020 1010 0
-1021 -985 0
1021 985 0
941 -1022 0
1011 -1022 0
-941 -1011 1022 0
944 -1023 0
1011 -1023 0
-944 -1011 1023 0
-1024 -988 0
1024 988 0
947 -1025 0
1011 -1025 0
-947 -1011 1025 0
950 -1026 0
1011 -1026 0
-950 -1011 1026 0
-1027 -991 0
1027 991 0
951 -1028 0
1011 -1028 0
-951 -1011 1028 0
953 -1029 0
1011 -1029 0
-953 -1011 1029 0
994 -1030 0
1012 -1030 0
-994 -1012 1030 0
-1031 -1013 0
1031 1013 0
-1032 -1014 0
1032 1014 0
997 -1033 0
1015 -1033 0
-997 -1015 1033 0
-1034 -1016 0
1034 1016 0
-1035 -1017 0
1035 1017 0
1018 -1036 0
1000 -1036 0
-1018 -1000 1036 0
-1037 -1019 0
1037 1019 0
-1038 -1022 0
1038 1022 0
1003 -1039 0
1021 -1039 0
-1003 -1021 1039 0
-1040 -1023 0
1040 1023 0
-1041 -1025 0
1041 1025 0
1006 -1042 0
1024 -1042 0
-1006 -1024 1042 0
-1043 -1026 0
1043 1026 0
-1044 -1028 0
1044 1028 0
1009 -1045 0
1027 -1045 0
-1009 -1027 1045 0
-1046 -1029 0
1046 1029 0
1038 -1047 0
1020 -1047 0
-1038 -1020 1047 0
-1048 -1030 0
1048 1030 0
1040 -1049 0
1031 -1049 0
-1040 -1031 1049 0
1032 -1050 0
1041 -1050 0
-1032 -1041 1050 0
-1051 -1033 0
1051 1033 0
1043 -1052 0
1034 -1052 0
-1043 -1034 1052 0
1044 -1053 0
1035 -1053 0
-1044 -1035 1053 0
-1054 -1036 0
1054 1036 0
1046 -1055 0
1037 -1055 0
-1046 -1037 1055 0
-1056 -1047 0
1056 1047 0
-1057 -1039 0
1057 1039 0
-1058 -1049 0
1058 1049 0
-1059 -1050 0
1059 1050 0
-1060 -1042 0
1060 1042 0
-1061 -1052 0
1061 1052 0
-1062 -1053 0
1062 1053 0
-1063 -1055 0
1063 1055 0
-1064 -1045 0
1064 1045 0
-77 2 0
77 -2 0
-28 4 0
28 -4 0
-32 6 0
32 -6 0
-36 8 0
36 -8 0
-40 10 0
40 -10 0
-44 12 0
44 -12 0
-48 14 0
48 -14 0
-52 16 0
52 -16 0
-56 18 0
56 -18 0
-60 20 0
60 -20 0
-64 22 0
64 -22 0
-68 24 0
68 -24 0
-1048 -1056 -1065 0
1048 1056 -1065 0
1048 -1056 1065 0
-1048 1056 1065 0
-1051 -1058 -1066 0
1051 1058 -1066 0
1051 -1058 1066 0
-1051 1058 1066 0
-1054 -1059 -1067 0
1054 1059 -1067 0
1054 -1059 1067 0
-1054 1059 1067 0
-1057 -1061 -1068 0
1057 1061 -1068 0
1057 -1061 1068 0
-1057 1061 1068 0
-1060 -1062 -1069 0
1060 1062 -1069 0
1060 -1062 1069 0
-1060 1062 1069 0
-1064 -1063 -1070 0
1064 1063 -1070 0
1064 -1063 1070 0
-1064 1063 1070 0
-901 -942 -1071 0
901 942 -1071 0
901 -942 1071 0
-901 942 1071 0
-904 -945 -1072 0
904 945 -1072 0
904 -945 1072 0
-904 945 1072 0
-907 -948 -1073 0
907 948 -1073 0
907 -948 1073 0
-907 948 1073 0
-726 -633 -1074 0
726 633 -1074 0
726 -633 1074 0
-726 633 1074 0
-729 -636 -1075 0
729 636 -1075 0
729 -636 1075 0
-729 636 1075 0
-732 -638 -1076 0
732 638 -1076 0
732 -638 1076 0
-732 638 1076 0
1065 1066 1067 1068 1069 1070 1071 1072 1073 1074 1075 1076 0
